11,1,17,2,4,1,14,2,7,2,16,3,11,2,2,3,9,4,1,4,10,3,13,3,16,4,5,3,3,3,17,4,5,4,19,3,2,5,8,5,3,5;6,1,17,1,13,1,16,2,18,4,20,2,1,3,10,2,14,3,7,4,11,4,1,5,8,3,14,5,6,5,4,4,13,5,5,5,19,5;8,1,2,1,7,1,18,3,2,2,8,2,7,3,20,3,5,1,6,4,10,4,14,4,11,5,12,2,7,5,16,5,17,5,10,5;1,1,18,1,20,1,10,1,9,1,9,2,4,2,12,1,6,3,13,2,15,3,4,3,3,2,15,4,2,4,12,3,15,5,19,4,4,5,12,4,18,5;16,1,18,2,14,1,6,2,1,2,15,1,9,3,19,1,11,3,15,2,3,1,5,2,19,2,13,4,17,3,20,4,8,4,3,4,9,5,20,5,12,5;
